10
0, 693, 651, 891, 246, 667, 760, 581, 194, 701
693, 0, 557, 851, 477, 238, 189, 674, 521, 250
651, 557, 0, 1289, 622, 746, 436, 1022, 482, 332
891, 851, 1289, 0, 720, 614, 1039, 310, 902, 1077
246, 477, 622, 720, 0, 421, 584, 421, 182, 551
667, 238, 746, 614, 421, 0, 427, 465, 543, 477
760, 189, 436, 1039, 584, 427, 0, 848, 570, 104
581, 674, 1022, 310, 421, 465, 848, 0, 602, 861
194, 521, 482, 902, 182, 543, 570, 602, 0, 507
701, 250, 332, 1077, 551, 477, 104, 861, 507, 0
